;(set-option :produce-unsat-cores true )
(set-logic ALL_SUPPORTED )
(declare-sort N$ 0 )
(declare-sort T$ 0 )
(declare-sort Dtree$ 0 )
(declare-sort N_set$ 0 )
(declare-sort N_dtree_fun$ 0 )
(declare-sort T_dtree_sum_set$ 0 )
(declare-datatypes ()((N_list$ (nil$ )(cons$ (hd$ N$ )(tl$ N_list$ )))(T_dtree_sum$ (inl$ (projl$ T$ ))(inr$ (projr$ Dtree$ )))(T_dtree_sum_list$ (nil$a )(cons$a (hd$a T_dtree_sum$ )(tl$a T_dtree_sum_list$ )))))
(declare-fun f$ ()N_dtree_fun$ )
(declare-fun t$ ()T$ )
(declare-fun ns$ ()N_set$ )
(declare-fun tr$ ()Dtree$ )
(declare-fun reg$ (N_dtree_fun$ Dtree$ )Bool )
(declare-fun set$ (N_list$ )N_set$ )
(declare-fun cont$ (Dtree$ )T_dtree_sum_set$ )
(declare-fun inFr$ (N_set$ Dtree$ T$ )Bool )
(declare-fun last$ (N_list$ )N$ )
(declare-fun path$ (N_dtree_fun$ N_list$ )Bool )
(declare-fun root$ (Dtree$ )N$ )
(declare-fun set$a (T_dtree_sum_list$ )T_dtree_sum_set$ )
(declare-fun subtr$ (N_set$ Dtree$ Dtree$ )Bool )
(declare-fun member$ (T_dtree_sum$ T_dtree_sum_set$ )Bool )
(declare-fun thesis$ ()Bool )
(declare-fun fun_app$ (N_dtree_fun$ N$ )Dtree$ )
(declare-fun less_eq$ (N_set$ N_set$ )Bool )
(declare-fun member$a (N$ N_set$ )Bool )
(declare-fun regular$ (Dtree$ )Bool )
(declare-fun distinct$ (N_list$ )Bool )
(declare-fun less_eq$a (T_dtree_sum_set$ T_dtree_sum_set$ )Bool )
(assert (! (not thesis$ ):named a0 ))
(assert (! (forall ((?v0 N_list$ )(?v1 Dtree$ ))(=> (and (distinct$ ?v0 )(and (path$ f$ ?v0 )(and (= (fun_app$ f$ (hd$ ?v0 ))tr$ )(and (= (fun_app$ f$ (last$ ?v0 ))?v1 )(and (less_eq$ (set$ ?v0 )ns$ )(member$ (inl$ t$ )(cont$ ?v1 )))))))thesis$ )):named a1 ))
(assert (! (regular$ tr$ ):named a2 ))
(assert (! (reg$ f$ tr$ ):named a3 ))
(assert (! (inFr$ ns$ tr$ t$ ):named a4 ))
(assert (! (member$a (root$ tr$ )ns$ ):named a5 ))
(assert (! (forall ((?v0 N_dtree_fun$ )(?v1 N_list$ ))(=> (path$ ?v0 ?v1 )(exists ((?v2 N_list$ ))(and (path$ ?v0 ?v2 )(and (= (hd$ ?v2 )(hd$ ?v1 ))(and (= (last$ ?v2 )(last$ ?v1 ))(and (less_eq$ (set$ ?v2 )(set$ ?v1 ))(distinct$ ?v2 )))))))):named a6 ))
(assert (! (forall ((?v0 T$ )(?v1 T$ ))(= (= (inl$ ?v0 )(inl$ ?v1 ))(= ?v0 ?v1 ))):named a7 ))
(assert (! (forall ((?v0 T$ )(?v1 T$ ))(= (= (inl$ ?v0 )(inl$ ?v1 ))(= ?v0 ?v1 ))):named a8 ))
(assert (! (forall ((?v0 T_dtree_sum_set$ )(?v1 T_dtree_sum_set$ ))(=> (forall ((?v2 T_dtree_sum$ ))(=> (member$ ?v2 ?v0 )(member$ ?v2 ?v1 )))(less_eq$a ?v0 ?v1 ))):named a9 ))
(assert (! (forall ((?v0 N_set$ )(?v1 N_set$ ))(=> (forall ((?v2 N$ ))(=> (member$a ?v2 ?v0 )(member$a ?v2 ?v1 )))(less_eq$ ?v0 ?v1 ))):named a10 ))
(assert (! (forall ((?v0 T_dtree_sum_set$ )(?v1 T_dtree_sum_set$ ))(=> (and (less_eq$a ?v0 ?v1 )(less_eq$a ?v1 ?v0 ))(= ?v0 ?v1 ))):named a11 ))
(assert (! (forall ((?v0 N_set$ )(?v1 N_set$ ))(=> (and (less_eq$ ?v0 ?v1 )(less_eq$ ?v1 ?v0 ))(= ?v0 ?v1 ))):named a12 ))
(assert (! (forall ((?v0 T_dtree_sum_set$ ))(less_eq$a ?v0 ?v0 )):named a13 ))
(assert (! (forall ((?v0 N_set$ ))(less_eq$ ?v0 ?v0 )):named a14 ))
(assert (! (forall ((?v0 N$ ))(= (root$ (fun_app$ f$ ?v0 ))?v0 )):named a15 ))
(assert (! (forall ((?v0 T_dtree_sum_list$ )(?v1 T_dtree_sum_set$ ))(= (less_eq$a (set$a ?v0 )?v1 )(forall ((?v2 T_dtree_sum$ ))(=> (member$ ?v2 (set$a ?v0 ))(member$ ?v2 ?v1 ))))):named a16 ))
(assert (! (forall ((?v0 N_list$ )(?v1 N_set$ ))(= (less_eq$ (set$ ?v0 )?v1 )(forall ((?v2 N$ ))(=> (member$a ?v2 (set$ ?v0 ))(member$a ?v2 ?v1 ))))):named a17 ))
(assert (! (forall ((?v0 N_dtree_fun$ )(?v1 Dtree$ )(?v2 N_set$ )(?v3 Dtree$ ))(=> (and (reg$ ?v0 ?v1 )(subtr$ ?v2 ?v3 ?v1 ))(exists ((?v4 N_list$ ))(and (distinct$ ?v4 )(and (path$ ?v0 ?v4 )(and (= (fun_app$ ?v0 (hd$ ?v4 ))?v1 )(and (= (fun_app$ ?v0 (last$ ?v4 ))?v3 )(less_eq$ (set$ ?v4 )?v2 )))))))):named a18 ))
(assert (! (forall ((?v0 N_dtree_fun$ )(?v1 Dtree$ )(?v2 N_set$ )(?v3 Dtree$ ))(=> (and (reg$ ?v0 ?v1 )(subtr$ ?v2 ?v3 ?v1 ))(exists ((?v4 N_list$ ))(and (path$ ?v0 ?v4 )(and (= (fun_app$ ?v0 (hd$ ?v4 ))?v1 )(and (= (fun_app$ ?v0 (last$ ?v4 ))?v3 )(less_eq$ (set$ ?v4 )?v2 ))))))):named a19 ))
(assert (! (forall ((?v0 N_dtree_fun$ )(?v1 Dtree$ )(?v2 N_set$ )(?v3 T$ ))(=> (and (reg$ ?v0 ?v1 )(forall ((?v4 N$ ))(= (root$ (fun_app$ ?v0 ?v4 ))?v4 )))(= (inFr$ ?v2 ?v1 ?v3 )(exists ((?v4 N_list$ )(?v5 Dtree$ ))(and (distinct$ ?v4 )(and (path$ ?v0 ?v4 )(and (= (fun_app$ ?v0 (hd$ ?v4 ))?v1 )(and (= (fun_app$ ?v0 (last$ ?v4 ))?v5 )(and (less_eq$ (set$ ?v4 )?v2 )(member$ (inl$ ?v3 )(cont$ ?v5 ))))))))))):named a20 ))
(assert (! (forall ((?v0 T$ )(?v1 T$ ))(=> (= (inl$ ?v0 )(inl$ ?v1 ))(= ?v0 ?v1 ))):named a21 ))
(assert (! (forall ((?v0 T_dtree_sum_set$ )(?v1 T_dtree_sum_set$ ))(= (= ?v0 ?v1 )(and (less_eq$a ?v0 ?v1 )(less_eq$a ?v1 ?v0 )))):named a22 ))
(assert (! (forall ((?v0 N_set$ )(?v1 N_set$ ))(= (= ?v0 ?v1 )(and (less_eq$ ?v0 ?v1 )(less_eq$ ?v1 ?v0 )))):named a23 ))
(check-sat )
;(get-unsat-core )
